num_images = 30;
universe = 333;
images = [{1, 3, 5, 7, 9, 11, 13, 15, 17, 18, 19, 20, 21, 22, 183, 184}, {24, 26, 28, 30, 32, 34, 36, 38, 40, 42, 44, 46, 48, 50, 52, 54, 56, 58, 59, 61, 63, 65, 67, 69, 71, 73, 75, 77, 79, 81, 83, 85, 87, 89, 91, 93, 95, 97, 99, 101, 103, 105, 107, 108, 109, 110, 111, 112, 113, 114, 115, 116, 117, 118, 167, 168, 169, 170, 171, 172, 186, 187, 188, 189, 190, 191, 192, 195, 196, 197, 198, 199, 200, 201, 202, 203, 204, 205, 206, 207, 208, 209, 210, 229, 230, 231, 232, 233, 234, 235, 236, 282, 283, 284, 285, 286, 287, 288, 289, 290, 291, 292, 293, 294, 295, 296, 297, 311, 312, 313, 318, 319, 320, 321, 322, 323, 324, 325, 326, 328, 329, 330, 333}, {42, 43, 44, 45, 46, 47, 48, 49, 50, 51, 52, 53, 54, 55, 56, 57, 58, 59, 60, 61, 62, 63, 64, 65, 66, 67, 68, 69, 70, 71, 72, 73, 74, 75, 76, 77, 78, 79, 80, 81, 82, 83, 84, 85, 86, 87, 88, 89, 90, 91, 92, 93, 94, 95, 96, 97, 98, 107, 109, 111, 113, 115, 117, 119, 121, 123, 125, 127, 129, 131, 133, 135, 137, 139, 141, 143, 145, 147, 149, 151, 152, 153, 154, 155, 156, 157, 158, 159, 160, 161, 162, 163, 164, 165, 167, 169, 171, 186, 187, 188, 189, 190, 191, 192, 195, 196, 197, 198, 199, 200, 201, 202, 203, 204, 205, 206, 207, 208, 209, 210, 211, 212, 213, 214, 215, 223, 224, 225, 226, 227, 228, 229, 230, 231, 232, 233, 234, 235, 236, 254, 255, 256, 257, 258, 259, 260, 261, 263, 264, 265, 266, 267, 268, 269, 270, 271, 272, 273, 283, 284, 285, 286, 287, 288, 289, 290, 291, 292, 293, 294, 295, 296, 303, 304, 305, 306, 307, 308, 309, 310, 311, 312, 313, 314, 315, 316, 317, 318, 319, 320, 321, 322, 324, 325, 326, 327, 328, 329, 333}, {5, 6, 7, 8, 9, 10, 11, 12, 13, 14, 15, 16, 17, 18, 19, 20, 173, 175, 177, 179, 183, 184, 185}, {13, 15, 16, 17, 18}, {9, 10, 11, 12, 13, 14, 15, 16, 175, 176, 177, 178, 179, 180, 181, 182, 184}, {158, 159, 160, 161, 162, 163, 164, 165, 166, 193, 79, 80, 81, 82, 83, 84, 85, 86, 87, 88, 89, 90, 91, 92, 93, 94, 95, 96, 97, 98, 99, 100, 101, 102, 103}, {48, 49, 50, 51, 52, 53, 54, 55, 56, 57, 58, 59, 60, 61, 62, 63, 64, 65, 66, 67, 68, 69, 70, 123, 124, 125, 126, 127, 128, 129, 130, 131, 132, 133, 134, 135, 136, 137, 138, 139, 140, 141, 142, 143, 144, 145, 146, 147, 148, 149, 150, 195, 197, 199, 201, 203, 205, 207, 209, 211, 212, 214, 221, 222, 223, 224, 225, 226, 227, 229, 231, 233, 235, 254, 255, 256, 257, 258, 259, 260, 261, 263, 264, 265, 266, 267, 268, 269, 270, 271, 272, 273, 286, 287, 288, 289, 290, 293, 294, 295, 296, 303, 304, 305, 306, 307, 308, 309, 310, 314, 315, 316, 317, 318, 319, 320, 328, 329, 333}, {34, 35, 36, 37, 262, 332, 237, 239, 241, 243, 245, 247, 248, 249, 251, 252}, {256, 1, 2, 258, 260, 145, 146, 147, 148, 149, 22, 23, 150, 153, 154, 152, 151, 310, 314, 315, 222, 223, 224, 225, 254}, {24, 25, 26, 27, 28, 29, 30, 31, 32, 33, 34, 35, 36, 37, 38, 39, 40, 41, 42, 43, 44, 45, 46, 47, 48, 49, 50, 51, 52, 53, 54, 55, 56, 57, 59, 60, 61, 62, 63, 64, 65, 66, 67, 68, 69, 70, 71, 72, 73, 74, 75, 76, 77, 78, 79, 80, 81, 82, 83, 84, 85, 86, 87, 88, 89, 90, 91, 92, 93, 94, 95, 96, 97, 98, 99, 100, 101, 102, 103, 104, 105, 106, 107, 108, 109, 110, 111, 112, 113, 114, 115, 116, 117, 118, 156, 157, 158, 159, 160, 161, 162, 163, 164, 165, 166, 167, 168, 169, 170, 171, 172, 186, 187, 188, 189, 190, 191, 192, 193, 194, 195, 196, 197, 198, 199, 200, 201, 202, 203, 204, 205, 206, 207, 208, 209, 210, 211, 229, 230, 231, 232, 233, 234, 235, 236, 262, 263, 265, 267, 274, 275, 282, 283, 284, 285, 286, 287, 288, 289, 290, 291, 292, 293, 294, 295, 296, 297, 311, 312, 313, 318, 319, 320, 321, 322, 323, 324, 325, 326, 327, 328, 329, 330, 333}, {274, 275, 276, 277, 24, 281, 25, 283, 285, 286, 288, 161, 162, 163, 164, 165, 166, 167, 168, 169, 170, 171, 172, 311, 312, 291, 186, 187, 188, 189, 193, 194, 195, 196, 197, 198, 321, 322, 323, 324, 331, 89, 90, 91, 92, 93, 94, 95, 96, 97, 98, 99, 100, 101, 102, 103, 104, 105, 106, 107, 108, 235, 236}, {32, 33, 34, 35, 36, 37, 38, 39, 40, 41, 42, 43, 44, 45, 46, 47, 48, 49, 50, 51, 52, 53, 54, 55, 115, 116, 117, 118, 119, 120, 121, 122, 123, 124, 125, 126, 127, 128, 129, 130, 209, 210, 211, 212, 213, 214, 215, 216, 217, 218, 237, 238, 239, 240, 241, 242, 243, 244, 248, 249, 250, 251, 252, 253, 262, 263, 264, 265, 266, 267, 268, 269, 293, 294, 295, 300, 301, 303, 305, 306, 307, 328, 329, 332}, {44, 45, 46, 47, 48, 49, 50, 51, 52, 53, 54, 55, 56, 57, 58, 59, 60, 61, 62, 63, 64, 65, 66, 67, 68, 69, 70, 71, 72, 73, 74, 75, 76, 77, 78, 79, 80, 81, 82, 83, 84, 85, 86, 87, 88, 89, 90, 91, 92, 93, 94, 95, 96, 133, 134, 135, 136, 152, 153, 154, 155, 156, 157, 158, 159, 160, 161, 162, 163, 164, 186, 187, 188, 189, 190, 191, 192, 195, 196, 197, 198, 199, 200, 201, 202, 203, 204, 205, 206, 207, 208, 209, 210, 211, 212, 213, 214, 215, 223, 224, 225, 226, 227, 228, 229, 230, 231, 232, 233, 234, 235, 236, 254, 255, 256, 257, 258, 259, 260, 261, 263, 264, 265, 266, 267, 268, 269, 270, 271, 272, 273, 283, 284, 285, 286, 287, 288, 289, 290, 291, 292, 293, 294, 295, 296, 303, 304, 305, 307, 308, 309, 310, 311, 312, 313, 314, 315, 316, 317, 318, 319, 320, 321, 322, 324, 325, 326, 327, 328, 329, 333}, {256, 1, 2, 3, 4, 5, 6, 7, 8, 9, 10, 11, 12, 135, 136, 137, 138, 139, 140, 141, 142, 143, 144, 145, 146, 258, 259, 260, 173, 174, 175, 176, 177, 178, 179, 180, 181, 308, 309, 185, 315, 257, 220, 221, 222}, {65, 66, 67, 68, 69, 70, 71, 72, 73, 74, 75, 76, 77, 78, 79, 80, 81, 82, 83, 84, 85, 86, 87, 88, 89, 90, 91, 92, 93, 94, 153, 154, 155, 156, 157, 158, 159, 160, 161, 162, 163, 187, 188, 189, 190, 191, 192, 195, 196, 197, 198, 199, 200, 201, 202, 203, 204, 205, 206, 224, 225, 226, 227, 228, 229, 230, 231, 232, 233, 234, 235, 236, 254, 255, 256, 257, 260, 261, 272, 273, 285, 286, 287, 288, 289, 290, 291, 292, 314, 315, 319, 320, 321, 322, 324, 325, 326, 327, 333}, {158, 159, 160, 161, 162, 163, 164, 165, 166, 167, 168, 169, 170, 291, 292, 311, 186, 187, 188, 189, 190, 191, 192, 193, 194, 321, 323, 324, 325, 326, 73, 74, 75, 76, 77, 78, 79, 80, 81, 82, 83, 84, 85, 86, 87, 88, 89, 90, 91, 92, 93, 94, 95, 96, 97, 98, 99, 100, 101, 102, 103, 104}, {11, 12, 13, 14, 15, 16, 17, 179, 180, 181, 182, 183}, {128, 129, 130, 131, 132, 133, 134, 135, 136, 137, 138, 139, 140, 141, 142, 264, 265, 266, 267, 268, 269, 270, 308, 185, 293, 263, 173, 174, 175, 176, 177, 178, 306, 180, 309, 179, 50, 51, 52, 53, 54, 55, 56, 57, 58, 59, 60, 61, 62, 317, 328, 329, 217, 218, 219, 220, 300, 307, 301, 302, 303, 304, 127, 305}, {274, 275, 276, 277, 278, 279, 280, 281, 26, 25, 27, 28, 30, 29, 32, 33, 34, 31, 35, 36, 37, 38, 39, 298, 299, 193, 194, 323, 331, 101, 102, 103, 104, 105, 106, 237, 238, 239, 240, 241, 242, 243, 244, 245, 246, 24, 252, 253}, {128, 129, 130, 131, 132, 133, 134, 135, 136, 137, 138, 303, 305, 306, 307, 214, 215, 216, 217, 218, 219, 220, 121, 122, 123, 124, 125, 126, 127}, {24, 25, 26, 27, 28, 29, 30, 31, 32, 33, 34, 35, 46, 47, 48, 49, 50, 51, 52, 53, 54, 55, 56, 57, 58, 59, 60, 61, 62, 63, 64, 65, 66, 67, 68, 69, 70, 71, 72, 73, 74, 75, 76, 81, 82, 83, 84, 85, 86, 87, 88, 89, 90, 91, 92, 93, 94, 95, 96, 97, 98, 99, 100, 101, 102, 103, 104, 105, 106, 107, 108, 109, 110, 111, 112, 113, 114, 115, 116, 117, 118, 167, 168, 169, 170, 171, 172, 186, 187, 188, 189, 190, 191, 192, 195, 196, 197, 198, 199, 200, 201, 202, 203, 204, 205, 206, 207, 208, 209, 210, 227, 228, 229, 230, 231, 232, 233, 234, 235, 236, 237, 238, 269, 270, 271, 272, 273, 277, 278, 279, 280, 282, 283, 284, 285, 286, 287, 288, 289, 290, 291, 292, 293, 294, 295, 296, 297, 304, 311, 312, 313, 318, 319, 320, 321, 322, 323, 324, 325, 326, 327, 328, 329, 330, 333}, {256, 260, 261, 273, 154, 155, 156, 157, 286, 287, 160, 161, 162, 288, 289, 290, 158, 159, 291, 292, 315, 188, 189, 190, 191, 192, 67, 68, 69, 70, 71, 72, 73, 74, 75, 76, 333, 77, 78, 79, 80, 81, 82, 83, 84, 85, 86, 87, 88, 89, 90, 91, 92, 195, 196, 324, 197, 225, 226, 227, 228, 198, 229, 230, 231, 232, 199, 233, 234, 235, 236, 200, 326, 327, 325}, {61, 62, 63, 64, 65, 66, 67, 68, 107, 108, 109, 110, 111, 112, 113, 114, 115, 116, 141, 142, 143, 144, 145, 146, 147, 148, 197, 198, 199, 200, 201, 202, 203, 204, 205, 206, 207, 208, 209, 210, 254, 255, 256, 257, 258, 259, 260, 261, 270, 271, 272, 273, 283, 284, 285, 286, 287, 288, 289, 290, 293, 294, 295, 296, 309, 310, 313, 314, 315, 316, 317, 318, 319, 320, 328, 329, 333}, {7, 8, 9, 10, 11, 12, 13, 14, 15, 16, 17, 18, 19, 177, 178, 179, 180, 181, 182, 183, 184, 185}, {274, 157, 158, 159, 160, 161, 162, 163, 164, 165, 166, 167, 168, 186, 187, 188, 189, 190, 191, 192, 193, 194, 327, 72, 75, 76, 77, 78, 79, 80, 81, 82, 83, 84, 85, 86, 87, 88, 89, 90, 91, 92, 93, 94, 95, 96, 97, 98, 99, 100, 101, 102, 103, 104, 105, 106}, {274, 275, 276, 277, 278, 24, 281, 282, 283, 25, 26, 27, 284, 285, 162, 163, 164, 165, 166, 167, 168, 169, 170, 171, 172, 311, 312, 186, 187, 188, 193, 194, 195, 196, 197, 198, 199, 200, 201, 202, 322, 323, 324, 331, 321, 91, 92, 93, 94, 95, 96, 97, 98, 99, 100, 101, 102, 103, 104, 105, 106, 107, 108, 109, 110}, {24, 25, 26, 27, 28, 29, 87, 88, 89, 90, 91, 92, 93, 94, 95, 96, 97, 98, 99, 100, 101, 102, 103, 104, 105, 106, 107, 108, 109, 110, 111, 112, 160, 161, 162, 163, 164, 165, 166, 167, 168, 169, 170, 171, 172, 186, 187, 188, 189, 190, 193, 194, 195, 196, 197, 198, 199, 200, 201, 202, 203, 204, 233, 234, 235, 236, 274, 275, 276, 277, 278, 279, 281, 282, 283, 284, 285, 286, 287, 290, 291, 292, 311, 312, 313, 318, 321, 322, 323, 324, 330, 331}, {24, 25, 26, 27, 28, 29, 30, 31, 32, 33, 34, 35, 36, 37, 38, 39, 40, 41, 42, 43, 44, 45, 46, 47, 48, 49, 50, 51, 52, 53, 83, 84, 85, 86, 87, 88, 89, 90, 91, 92, 93, 94, 95, 96, 97, 98, 99, 100, 101, 102, 103, 104, 105, 106, 107, 108, 109, 110, 111, 112, 113, 114, 115, 116, 117, 118, 119, 120, 121, 122, 123, 124, 125, 126, 127, 128, 158, 159, 160, 161, 162, 163, 164, 165, 166, 167, 168, 169, 170, 171, 172, 186, 187, 188, 189, 190, 191, 192, 193, 194, 195, 196, 197, 198, 199, 200, 201, 202, 203, 204, 205, 206, 207, 208, 209, 210, 211, 212, 213, 214, 215, 216, 217, 229, 230, 231, 232, 233, 234, 235, 236, 237, 238, 239, 240, 249, 250, 251, 252, 253, 262, 263, 264, 265, 266, 274, 275, 276, 277, 278, 279, 280, 281, 282, 283, 284, 285, 286, 287, 288, 289, 290, 291, 292, 295, 296, 297, 298, 300, 305, 306, 307, 311, 312, 313, 318, 319, 320, 321, 322, 323, 324, 325, 326, 328, 329, 330, 331, 333}, {24, 25, 26, 27, 28, 29, 30, 31, 32, 33, 34, 35, 36, 37, 38, 39, 40, 41, 42, 43, 44, 45, 46, 47, 48, 49, 50, 51, 85, 86, 87, 88, 89, 90, 91, 92, 93, 94, 95, 96, 97, 98, 99, 100, 101, 102, 103, 104, 105, 106, 107, 108, 109, 110, 111, 112, 113, 114, 115, 116, 117, 118, 119, 120, 121, 122, 123, 124, 127, 159, 160, 161, 162, 163, 164, 165, 166, 167, 168, 169, 170, 171, 172, 186, 187, 188, 189, 190, 191, 193, 194, 195, 196, 197, 198, 199, 200, 201, 202, 203, 204, 205, 206, 207, 208, 209, 210, 211, 212, 213, 214, 215, 231, 232, 233, 234, 235, 236, 237, 238, 239, 240, 241, 242, 251, 252, 253, 262, 263, 264, 274, 275, 276, 277, 278, 279, 280, 281, 282, 283, 284, 285, 286, 287, 288, 289, 290, 291, 292, 297, 298, 299, 305, 306, 311, 312, 313, 318, 319, 321, 322, 323, 324, 325, 329, 330, 331, 332}];
costs = [284400, 417680, 588600, 156570, 74808, 198970, 54450, 664452, 106190, 258444, 459350, 239400, 312290, 583200, 698400, 243000, 71010, 181870, 315120, 211940, 223090, 440840, 237600, 250640, 191110, 68960, 243288, 244800, 882000, 588060];
clouds = [{1, 5, 7, 13, 19, 20, 21, 22, 183, 184}, {294, 172, 207, 208, 118, 313, 283, 188, 189}, {42, 44, 45, 47, 48, 50, 53, 55, 56, 57, 59, 60, 71, 72, 77, 79, 80, 82, 83, 86, 87, 89, 91, 92, 94, 97, 98, 107, 109, 111, 115, 117, 121, 125, 131, 143, 145, 147, 151, 152, 153, 155, 156, 158, 160, 161, 164, 165, 167, 186, 188, 190, 191, 195, 197, 199, 201, 203, 204, 207, 208, 210, 212, 225, 227, 231, 233, 234, 254, 260, 270, 272, 273, 283, 286, 288, 289, 292, 293, 294, 296, 303, 306, 307, 318, 320, 322, 333}, {9, 10, 12, 14, 15, 16, 17, 175, 19, 184, 185}, {}, {}, {}, {}, {34, 35, 37, 237, 239, 241, 251, 252}, {}, {}, {97, 194, 196, 165, 102, 103, 166, 170, 171, 108, 236, 281, 90, 91, 188}, {241, 37, 45}, {46, 48, 49, 52, 53, 55, 56, 57, 58, 60, 61, 62, 64, 65, 66, 68, 70, 71, 72, 73, 74, 76, 78, 79, 80, 81, 82, 83, 84, 85, 86, 89, 92, 94, 95, 96, 136, 153, 154, 156, 157, 158, 159, 161, 162, 164, 186, 187, 188, 189, 190, 192, 196, 198, 201, 202, 204, 211, 213, 215, 223, 224, 225, 226, 229, 230, 232, 235, 236, 257, 258, 259, 260, 261, 264, 266, 267, 269, 271, 272, 273, 285, 287, 289, 290, 292, 294, 295, 296, 303, 305, 308, 310, 312, 313, 315, 316, 317, 319, 320, 322, 325, 326, 327, 328, 329, 333}, {257, 4, 6, 9, 138, 12, 141, 308, 181, 185, 315}, {257, 260, 154, 157, 159, 160, 161, 289, 287, 315, 319, 66, 197, 325, 326, 200, 205, 80, 82, 84, 86, 236, 254, 255}, {192, 97, 194, 161, 164, 291, 323, 167, 104, 83, 84, 85, 87, 311, 88, 187, 189}, {13, 14, 17, 179, 183}, {128, 131, 264, 265, 266, 141, 270, 303, 176, 178, 306, 309, 56, 57, 58, 59, 61, 317, 328, 127}, {}, {128, 121, 131, 133, 134, 137, 303, 217, 122, 123, 124, 126}, {}, {289, 290, 191, 260, 198, 326, 333, 81, 273, 159}, {}, {7, 8, 11, 13, 16, 18, 178, 179}, {192, 159, 194, 100, 166, 72, 79, 157, 88, 186, 92, 189, 158, 191}, {}, {277, 279, 281, 29, 286, 160, 163, 189, 193, 323, 87, 93, 95, 97, 99, 103, 105, 106, 234, 108, 109, 111}, {266, 274, 280, 27, 159, 292, 165, 39, 41, 170, 48, 307, 186, 319, 195, 196, 199, 203, 208, 213, 88, 89, 92, 101, 231, 234, 109, 110, 120, 123, 126}, {289, 102, 200, 238, 47, 242, 214, 119}];
areas = [7589, 6306, 20380, 197, 105, 9859, 455, 17697, 18, 113, 462, 35905, 59529, 20441, 0, 33, 23484, 204, 145, 33398, 7641, 1994, 546, 1176, 1932, 3, 27, 4235, 243, 1277, 292, 9261, 6891, 166, 2082, 1631, 74036, 1557, 17559, 26092, 3147, 718, 6791, 30, 134, 13256, 221, 191, 44, 14, 3855, 17, 387, 109, 14753, 5622, 1780, 64, 93, 11836, 6, 756, 1, 213, 446, 44122, 11, 1039, 148, 20965, 35, 4201, 6, 1121, 182, 41154, 135, 5, 1400, 8, 13, 72, 84, 2063, 5974, 1325, 3856, 19, 62, 102, 267, 34, 76, 4, 56, 6443, 17244, 99, 328, 454, 12, 383, 9, 47, 1, 69, 1, 398, 553, 44, 10, 67, 1, 0, 249, 8, 1, 2, 469, 94, 15, 1220, 35290, 25, 827, 10, 0, 24, 29, 0, 25, 562, 241, 11, 13, 5, 10, 160, 302, 15, 349, 9, 3, 23, 7, 275, 1, 556, 156, 3018, 54, 705, 1041, 441, 15, 517, 570, 7149, 159, 10, 9, 2, 0, 242, 1, 29, 9, 52, 64, 3, 0, 4, 59, 3, 628, 176, 1, 75, 27, 515, 142, 7, 179, 277, 1123, 175, 12487, 10008, 75, 84, 115, 101, 27, 3, 2000, 10, 196, 60, 15, 96, 1451, 15, 235, 588, 102, 7326, 6114, 957, 1045, 12, 313, 334, 61, 411, 25513, 862, 4201, 61, 466, 11, 112, 47, 3815, 354, 191, 3257, 52, 681, 533, 10009, 72, 11, 17, 8113, 2016, 26, 5, 4360, 20423, 1300, 215, 15112, 37, 130, 36146, 5492, 29138, 281, 2, 49, 5364, 0, 9693, 9313, 59982, 18590, 22713, 1969, 1188, 7207, 2572, 0, 588, 2988, 20413, 33537, 49, 68, 21899, 24509, 2108, 21703, 4650, 79, 8458, 9104, 2145, 898, 1159, 118, 2176, 77, 7923, 9300, 37736, 31371, 25454, 1095, 91, 1, 13, 17653, 73135, 4094, 13, 17, 4190, 345, 1390, 3097, 134, 13, 253, 24, 360, 4509, 409, 171, 62, 6557, 974, 82610, 3934, 26461, 44, 510, 20, 1976, 67249, 713, 286, 2237, 53231, 21410, 20299, 36328, 3546, 109019, 1, 1, 499, 8248, 664];
max_cloud_area = 556532273;
resolution = [30, 50, 30, 50, 33, 50, 50, 35, 50, 31, 50, 30, 50, 30, 30, 30, 50, 50, 50, 50, 50, 50, 30, 50, 50, 50, 30, 30, 30, 31];
incidence_angle = [137, 162, 130, 9, 218, 187, 18, 279, 171, 157, 182, 78, 177, 173, 189, 84, 165, 91, 152, 180, 114, 248, 61, 152, 169, 173, 102, 110, 174, 124];
